\ENCODING=ISO-8859-1
\Problem name: IloCplex

Minimize
 obj1: 1000000 y0 + 1000000 y1 + 1000000 y2 + 1000000 y3 + 1000000 y4
       + 1000000 y5 + 1000000 y6 + 1000000 y7 + x9 + x10 + x11 + x12 + x13
       + x14 + x15 + x16 + x17 + x18 + x19 + x20 + x21 + x22 + x23 + x24 + x25
       + x26 + x27 + x28 + x29 + x30 + x31 + x32 + x33 + x34 + x35 + x36 + x37
       + x38 + x39 + x40 + x41 + x42 + x43 + x44 + x45 + x46 + x47 + x48 + x49
       + x50 + x51 + x52 + x53 + x54 + x55 + x56 + x57
Subject To
 c1: y0 + x9 + x10 + x11 + x12 + x13 + x16 + x17 + x18 + x19 + x20 + x36 + x48
     + x49 + x50 + x51 + x52 + x53 + x54 + x55 + x56 + x57  = 1
 c2: y1 + x44  = 1
 c3: y2 + x14 + x15 + x21 + x22 + x23 + x24 + x25 + x26 + x27 + x28 + x29 + x30
     + x31 + x32 + x33 + x34 + x35 + x45 + x46 + x47  = 1
 c4: y3 + x14 + x15 + x35 + x36 + x37 + x38 + x39 + x40 + x41 + x42 + x43 + x44
      = 1
 c5: y4 + x21 + x22 + x23 + x24 + x25 + x26 + x27 + x28 + x29 + x30 + x31 + x32
     + x33 + x34 + x37 + x38 + x39 + x40 + x41 + x42 + x43 + x45 + x46 + x47
      = 1
 c6: y5 + x9 + x10 + x11 + x12 + x13 + x14 + x15  = 1
 c7: y6 + x16 + x17 + x18 + x19 + x20 + x21 + x22 + x23 + x24 + x25 + x26 + x27
     + x28 + x29 + x30 + x31 + x32 + x33 + x34  = 1
 c8: y7 + x9 + x10 + x11 + x12 + x13 + x16 + x17 + x18 + x19 + x20  = 1
Bounds
      x9 = 0
      x10 = 0
      x11 = 0
      x12 = 0
      x14 = 0
      x16 = 0
      x17 = 0
      x18 = 0
      x19 = 0
      x21 = 0
      x22 = 0
      x23 = 0
      x24 = 0
      x25 = 0
      x26 = 0
      x27 = 0
      x28 = 0
      x29 = 0
      x30 = 0
      x31 = 0
      x32 = 0
      x33 = 0
      x37 = 0
      x38 = 0
      x39 = 0
      x40 = 0
      x41 = 0
      x42 = 0
      x45 = 0
      x46 = 0
      x48 = 0
      x49 = 0
      x50 = 0
      x51 = 0
      x52 = 0
      x53 = 0
      x54 = 0
      x55 = 0
      x56 = 0
      x57 = 0
End
